CMPL model generation - running

CMPL version: 1.11.0
Authors: Thomas Schleiff, Mike Steglich
Distributed under the GPLv3 

create model instance ...
write model instance ...
CMPL model generation - finished

Solver - running


Welcome to IBM(R) ILOG(R) CPLEX(R) Interactive Optimizer 12.7.1.0
  with Simplex, Mixed Integer & Barrier Optimizers
5725-A06 5725-A29 5724-Y48 5724-Y49 5724-Y54 5724-Y55 5655-Y21
Copyright IBM Corp. 1988, 2017.  All Rights Reserved.

Type 'help' for a list of available commands.
Type 'help' followed by a command name for more
information on commands.

CPLEX> Specified objective sense: MINIMIZE
Selected objective  name:  line[1]
Selected RHS        name:  RHS
Selected bound      name:  BOUND
Problem '/tmp/cmpl.T23362.mps' read.
Read time = 0.05 sec. (8.16 ticks)
CPLEX> CPXPARAM_Read_APIEncoding                        "UTF-8"
Tried aggregator 3 times.
MIP Presolve eliminated 19315 rows and 30844 columns.
MIP Presolve modified 340 coefficients.
Aggregator did 590 substitutions.
Reduced MIP has 2450 rows, 3159 columns, and 9255 nonzeros.
Reduced MIP has 2991 binaries, 0 generals, 0 SOSs, and 0 indicators.
Presolve time = 0.06 sec. (40.18 ticks)
Found incumbent of value 479.052087 after 0.08 sec. (55.57 ticks)
Probing fixed 4 vars, tightened 0 bounds.
Probing time = 0.01 sec. (3.94 ticks)
Tried aggregator 1 time.
MIP Presolve eliminated 0 rows and 4 columns.
MIP Presolve modified 15 coefficients.
Reduced MIP has 2450 rows, 3155 columns, and 9247 nonzeros.
Reduced MIP has 3155 binaries, 0 generals, 0 SOSs, and 0 indicators.
Presolve time = 0.01 sec. (7.89 ticks)
Probing time = 0.01 sec. (2.68 ticks)
Clique table members: 5003.
MIP emphasis: balance optimality and feasibility.
MIP search method: dynamic search.
Parallel mode: none, using 1 thread.
Root relaxation solution time = 0.00 sec. (4.15 ticks)

        Nodes                                         Cuts/
   Node  Left     Objective  IInf  Best Integer    Best Bound    ItCnt     Gap

*     0+    0                          479.0521      -32.1375           106.71%
      0     0        7.1554    16      479.0521        7.1554       51   98.51%
*     0+    0                           40.8258        7.1554            82.47%
*     0+    0                            7.6126        7.1554             6.01%
      0     0        cutoff              7.6126                     51    0.00%
Elapsed time = 0.13 sec. (87.23 ticks, tree = 0.01 MB, solutions = 3)

Root node processing (before b&c):
  Real time             =    0.13 sec. (88.72 ticks)
Sequential b&c:
  Real time             =    0.00 sec. (0.00 ticks)
                          ------------
Total (root+branch&cut) =    0.13 sec. (88.72 ticks)

Solution pool: 3 solutions saved.

MIP - Integer optimal solution:  Objective =  7.6125620000e+00
Solution time =    0.13 sec.  Iterations = 51  Nodes = 0
Deterministic time = 88.82 ticks  (661.32 ticks/sec)

CPLEX> Incumbent solution written to file '/tmp/cmpl.T23362.gsol'.
CPLEX> 
CMPL: Time used for model generation: 1 seconds
CMPL: Time used for solving the model: 0 seconds


Solution written to ASCII file: results/output_generated_conf_0/2016-03-07-4/fair-nonlinear.sol

Solver - finished
